50
150
100
98
97
96
95
93
92
88
88
86
84
83
80
80
78
77
76
76
76
74
73
70
69
68
65
64
63
62
62
61
60
60
53
51
51
42
41
28
26
23
22
21
16
13
9
9
7
5
2
2
